NAME : sim141.122670.tour
COMMENT : Length = 122670
COMMENT : Found by LKH [Keld Helsgaun] Thu Sep 20 03:56:32 2018
TYPE : TOUR
DIMENSION : 141
TOUR_SECTION
1
112
141
108
103
94
135
88
80
23
2
13
92
74
24
35
71
69
97
27
93
46
67
113
5
128
89
10
117
42
91
34
123
16
82
56
65
105
76
52
78
64
73
17
138
47
12
84
8
19
55
133
106
109
61
131
83
28
49
29
72
81
107
38
127
4
120
32
15
9
85
59
22
126
139
31
110
98
60
122
137
21
75
70
37
77
118
132
87
99
48
111
136
58
40
11
63
41
116
25
30
14
90
51
86
26
62
57
140
36
104
33
102
95
45
50
44
100
53
6
20
121
3
96
101
119
124
66
39
129
7
18
43
125
79
68
54
130
134
114
115
-1
EOF
